n = 100;
C = 23757;
w = [470,338,399,479,951,359,648,692,334,787,190,992,212,638,832,35,1,191,503,475,264,147,527,22,141,223,282,844,121,146,423,340,810,334,297,711,140,977,746,770,973,735,538,112,544,162,211,47,432,604,551,753,127,900,275,678,767,264,789,240,297,210,357,855,461,206,608,510,345,691,371,606,797,136,342,953,214,856,206,826,641,353,951,643,283,18,762,551,303,379,300,41,775,649,543,92,966,978,293,653];
p = [470,338,399,479,951,359,648,692,334,787,190,992,212,638,832,35,1,191,503,475,264,147,527,22,141,223,282,844,121,146,423,340,810,334,297,711,140,977,746,770,973,735,538,112,544,162,211,47,432,604,551,753,127,900,275,678,767,264,789,240,297,210,357,855,461,206,608,510,345,691,371,606,797,136,342,953,214,856,206,826,641,353,951,643,283,18,762,551,303,379,300,41,775,649,543,92,966,978,293,653];
